r = [
0,39,22,54,94,118,43,33,20,130,57,0
];
p = [
0,20,13,14,10,13,19,22,30,2,8,0
];
e = [
0,13,13,17,18,10,8,20,14,13,5,0
];
d = [
0,82,35,68,133,131,120,64,50,132,106,143
];
d_bar = [
0,100,47,81,142,143,137,84,77,134,113,143
];
w = [
0,0.722222222,1.083333333,1.307692308,2,0.833333333,0.470588235,1,0.518518519,6.5,0.714285714,0
];
